NAME: tsp40_26
COMMENT: 40-tsp problem (Padberg/Rinaldi)
TYPE: TSP
DIMENSION: 40
EDGE_WEIGHT_TYPE : EUC_2D
NODE_COORD_SECTION
1 9 14
2 2 29
3 37 33
4 23 3
5 7 32
6 24 36
7 13 30
8 6 39
9 2 11
10 32 30
11 19 37
12 26 8
13 34 28
14 26 20
15 32 17
16 32 37
17 15 20
18 27 36
19 14 11
20 22 15
21 9 8
22 13 10
23 34 14
24 9 33
25 28 8
26 39 8
27 35 35
28 29 12
29 14 27
30 17 32
31 25 14
32 14 31
33 19 33
34 2 19
35 32 27
36 8 20
37 21 17
38 13 25
39 26 32
40 38 40
